
Gurobi 9.5.0 (linux64) logging started Wed Nov  8 21:40:45 2023

Set parameter LogFile to value "/lustre1/scratch/348/vsc34888/JointResearch/05.Models/06.Benchmarking/G.Representative_days_based_on_Line_Benefit_NN_OC_fy_2/RTS24_ByStages_nc80/openStarNet_RTS24_ByStages_nc80.log"
Set parameter Method to value 2
Set parameter MIPFocus to value 1
Set parameter Presolve to value 2
Set parameter RINS to value 100
Set parameter MIPGap to value 0.01
Set parameter Threads to value 36
Set parameter TimeLimit to value 604800
Set parameter IterationLimit to value 760000000
Gurobi Optimizer version 9.5.0 build v9.5.0rc5 (linux64)
Thread count: 36 physical cores, 36 logical processors, using up to 36 threads
Optimize a model with 35603 rows, 20503 columns and 97960 nonzeros
Model fingerprint: 0xeecd6efe
Variable types: 20464 continuous, 39 integer (39 binary)
Coefficient statistics:
  Matrix range     [1e-03, 2e+03]
  Objective range  [1e+00, 1e+00]
  Bounds range     [4e-04, 3e+00]
  RHS range        [4e-04, 3e+00]
Presolve removed 17363 rows and 8751 columns
Presolve time: 0.18s
Presolved: 18240 rows, 11752 columns, 63473 nonzeros
Variable types: 11713 continuous, 39 integer (39 binary)
Found heuristic solution: objective 150.7022721
Root relaxation presolved: 18240 rows, 11752 columns, 63473 nonzeros

Root barrier log...

Ordering time: 0.01s

Barrier statistics:
 Dense cols : 39
 AA' NZ     : 1.350e+05
 Factor NZ  : 4.524e+05 (roughly 16 MB of memory)
 Factor Ops : 1.424e+07 (less than 1 second per iteration)
 Threads    : 36

                  Objective                Residual
Iter       Primal          Dual         Primal    Dual     Compl     Time
   0   6.29719937e+05 -1.39826730e+08  4.52e+00 3.98e+02  1.09e+04     0s
   1   7.08032247e+04 -3.79976473e+07  3.99e-01 7.62e-09  1.39e+03     0s
   2   2.38754520e+04 -5.46121590e+06  1.06e-02 3.56e-09  1.51e+02     0s
   3   1.68633731e+04 -2.77467672e+05  9.67e-13 2.48e-10  7.93e+00     1s
   4   3.87932652e+03 -4.06783128e+04  1.14e-12 2.86e-11  1.20e+00     1s
   5   1.34659524e+03 -1.00879397e+04  4.57e-13 6.20e-12  3.08e-01     1s
   6   4.73637176e+02 -2.95092770e+03  4.74e-13 1.71e-12  9.23e-02     1s
   7   3.17949281e+02 -1.03228146e+03  3.95e-13 9.09e-13  3.64e-02     1s
   8   1.84907414e+02 -3.39293837e+02  3.55e-13 1.82e-12  1.41e-02     1s
   9   1.43577155e+02 -5.97338653e+01  3.55e-13 1.82e-12  5.48e-03     1s
  10   1.14890419e+02  3.81678587e+01  4.73e-13 1.82e-12  2.07e-03     1s
  11   9.90404922e+01  7.27919069e+01  8.11e-13 1.82e-12  7.07e-04     1s
  12   9.48355679e+01  8.21946610e+01  1.82e-12 1.82e-12  3.41e-04     1s
  13   9.42164825e+01  8.35034123e+01  1.62e-12 1.82e-12  2.89e-04     1s
  14   9.19755774e+01  8.46401949e+01  1.69e-11 1.82e-12  1.98e-04     1s
  15   9.11875708e+01  8.71500318e+01  1.09e-11 1.82e-12  1.09e-04     1s
  16   9.06453015e+01  8.80591091e+01  6.89e-12 1.82e-12  6.97e-05     1s
  17   9.02736648e+01  8.88619015e+01  6.76e-12 1.82e-12  3.80e-05     1s
  18   9.01105810e+01  8.93220009e+01  4.17e-12 3.64e-12  2.13e-05     1s
  19   9.00272079e+01  8.95329810e+01  6.47e-12 1.82e-12  1.33e-05     1s
  20   8.99493693e+01  8.97298287e+01  3.41e-11 9.09e-13  5.92e-06     1s
  21   8.98862702e+01  8.98339914e+01  1.81e-10 1.82e-12  1.41e-06     1s
  22   8.98747555e+01  8.98555146e+01  1.35e-10 1.82e-12  5.19e-07     1s
  23   8.98722772e+01  8.98588048e+01  8.33e-11 9.09e-13  3.63e-07     1s
  24   8.98693820e+01  8.98596992e+01  3.70e-11 9.09e-13  2.61e-07     1s
  25   8.98688233e+01  8.98609182e+01  2.84e-11 9.09e-13  2.13e-07     1s
  26   8.98677907e+01  8.98632455e+01  1.72e-11 9.09e-13  1.22e-07     1s
  27   8.98670322e+01  8.98667634e+01  7.60e-11 1.82e-12  7.24e-09     1s
  28   8.98669731e+01  8.98669726e+01  1.07e-09 1.82e-12  1.23e-11     1s

Barrier solved model in 28 iterations and 0.82 seconds (0.67 work units)
Optimal objective 8.98669731e+01


Root relaxation: objective 8.986697e+01, 1433 iterations, 0.57 seconds (0.35 work units)

    Nodes    |    Current Node    |     Objective Bounds      |     Work
 Expl Unexpl |  Obj  Depth IntInf | Incumbent    BestBd   Gap | It/Node Time

     0     0   89.86697    0   12  150.70227   89.86697  40.4%     -    1s
H    0     0                     120.7611879   89.86697  25.6%     -    1s
     0     0   92.57420    0   12  120.76119   92.57420  23.3%     -    1s
H    0     0                     105.4196517   92.57420  12.2%     -    1s
     0     0   92.80461    0   12  105.41965   92.80461  12.0%     -    2s
     0     0   93.29499    0   12  105.41965   93.29499  11.5%     -    2s
     0     0   93.29499    0   12  105.41965   93.29499  11.5%     -    2s
H    0     0                     104.6660211   93.62415  10.5%     -    2s
     0     0   93.62415    0   10  104.66602   93.62415  10.5%     -    2s
     0     0   93.71300    0   10  104.66602   93.71300  10.5%     -    2s
     0     0   93.72300    0   10  104.66602   93.72300  10.5%     -    2s
     0     0   93.72300    0   10  104.66602   93.72300  10.5%     -    2s
     0     0   93.86418    0   11  104.66602   93.86418  10.3%     -    3s
     0     0   93.88091    0   11  104.66602   93.88091  10.3%     -    3s
     0     0   93.89728    0   11  104.66602   93.89728  10.3%     -    3s
     0     0   93.89761    0   11  104.66602   93.89761  10.3%     -    3s
     0     0   93.92460    0   11  104.66602   93.92460  10.3%     -    3s
     0     0   93.92526    0   11  104.66602   93.92526  10.3%     -    4s
     0     0   93.92589    0   11  104.66602   93.92589  10.3%     -    4s
     0     0   93.92600    0   11  104.66602   93.92600  10.3%     -    4s
     0     0   93.92801    0   11  104.66602   93.92801  10.3%     -    4s
H    0     0                     101.1328162   93.92801  7.12%     -    8s
     0     2   93.92801    0   11  101.13282   93.92801  7.12%     -    8s
    23    20     cutoff    5       101.13282   95.16152  5.90%   431   10s
   127    19  100.27570   10    6  101.13282   98.58751  2.52%   267   16s

Cutting planes:
  Gomory: 6
  Implied bound: 82
  MIR: 551
  Relax-and-lift: 3

Explored 161 nodes (43004 simplex iterations) in 17.05 seconds (18.39 work units)
Thread count was 36 (of 36 available processors)

Solution count 5: 101.133 104.666 105.42 ... 150.702

Optimal solution found (tolerance 1.00e-02)
Best objective 1.011328162324e+02, best bound 1.002250213996e+02, gap 0.8976%

Gurobi 9.5.0 (linux64) logging started Wed Nov  8 21:41:06 2023

Set parameter LogFile to value "/lustre1/scratch/348/vsc34888/JointResearch/05.Models/06.Benchmarking/G.Representative_days_based_on_Line_Benefit_NN_OC_fy_2/RTS24_ByStages_nc80/openStarNet_RTS24_ByStages_nc80.log"
Set parameter Method to value 2
Set parameter MIPFocus to value 1
Set parameter Presolve to value 2
Set parameter RINS to value 100
Set parameter MIPGap to value 0.01
Set parameter Threads to value 36
Set parameter TimeLimit to value 604800
Set parameter IterationLimit to value 760000000
No parameters matching 'relax_integrality' found
Gurobi Optimizer version 9.5.0 build v9.5.0rc5 (linux64)
Thread count: 36 physical cores, 36 logical processors, using up to 36 threads
Optimize a model with 35603 rows, 20464 columns and 85441 nonzeros
Model fingerprint: 0x450f4669
Coefficient statistics:
  Matrix range     [1e-03, 2e+03]
  Objective range  [1e+00, 1e+00]
  Bounds range     [4e-04, 3e+00]
  RHS range        [4e-04, 3e+01]
Presolve removed 28166 rows and 9557 columns
Presolve time: 0.04s
Presolved: 7437 rows, 11067 columns, 27381 nonzeros

Ordering time: 0.00s

Barrier statistics:
 AA' NZ     : 1.912e+04
 Factor NZ  : 8.178e+04 (roughly 7 MB of memory)
 Factor Ops : 1.246e+06 (less than 1 second per iteration)
 Threads    : 36

                  Objective                Residual
Iter       Primal          Dual         Primal    Dual     Compl     Time
   0   1.09636916e+06 -8.80147021e+08  3.53e+00 8.56e+02  8.85e+04     0s
   1   9.80892010e+04 -1.41410263e+08  2.82e-01 7.73e-11  9.40e+03     0s
   2   4.28149104e+04 -1.53755971e+07  7.29e-02 6.08e-11  9.42e+02     0s
   3   2.61788338e+04 -1.14599704e+06  1.11e-03 6.18e-11  6.20e+01     0s
   4   1.48080631e+04 -1.40864005e+05  7.70e-13 3.48e-10  8.19e+00     0s
   5   7.43019895e+03 -4.11047279e+04  8.01e-13 9.36e-11  2.55e+00     0s
   6   2.45579994e+03 -1.19231111e+04  4.18e-13 2.27e-11  7.57e-01     0s
   7   8.58404320e+02 -3.31607536e+03  3.56e-13 1.46e-11  2.20e-01     0s
   8   4.55358268e+02 -1.03954734e+03  4.04e-13 7.28e-12  7.87e-02     0s
   9   2.67632662e+02 -3.83017031e+02  4.21e-13 1.46e-11  3.42e-02     0s
  10   1.83212294e+02 -3.00324774e+01  4.19e-13 1.46e-11  1.12e-02     0s
  11   1.37308481e+02  5.54320921e+01  1.49e-12 1.46e-11  4.31e-03     0s
  12   1.19702885e+02  8.11334518e+01  1.26e-12 7.28e-12  2.03e-03     0s
  13   1.09358457e+02  9.17331403e+01  4.47e-12 3.64e-12  9.27e-04     0s
  14   1.05429268e+02  9.68751399e+01  2.70e-12 1.46e-11  4.50e-04     0s
  15   1.02627062e+02  9.91838168e+01  2.59e-12 3.64e-12  1.81e-04     0s
  16   1.01682984e+02  1.00592130e+02  2.50e-12 1.46e-11  5.74e-05     0s
  17   1.01240376e+02  1.00877510e+02  2.20e-11 7.28e-12  1.91e-05     0s
  18   1.01134648e+02  1.01119335e+02  3.74e-12 1.46e-11  8.06e-07     0s
  19   1.01132890e+02  1.01132062e+02  4.71e-11 7.28e-12  4.36e-08     0s
  20   1.01132817e+02  1.01132812e+02  2.43e-11 1.46e-11  2.63e-10     0s
  21   1.01132816e+02  1.01132816e+02  1.79e-12 1.46e-11  4.54e-16     0s

Barrier solved model in 21 iterations and 0.17 seconds (0.11 work units)
Optimal objective 1.01132816e+02

Crossover log...

    1052 DPushes remaining with DInf 0.0000000e+00                 0s
       0 DPushes remaining with DInf 0.0000000e+00                 0s

     377 PPushes remaining with PInf 0.0000000e+00                 0s
       0 PPushes remaining with PInf 0.0000000e+00                 0s

  Push phase complete: Pinf 0.0000000e+00, Dinf 1.6209524e-12      0s

Iteration    Objective       Primal Inf.    Dual Inf.      Time
     492    1.0113282e+02   0.000000e+00   0.000000e+00      0s

Use crossover to convert LP symmetric solution to basic solution...
Crossover log...

       0 DPushes remaining with DInf 0.0000000e+00                 0s

     247 PPushes remaining with PInf 0.0000000e+00                 0s
       0 PPushes remaining with PInf 0.0000000e+00                 0s

  Push phase complete: Pinf 0.0000000e+00, Dinf 1.2926940e-12      0s

Iteration    Objective       Primal Inf.    Dual Inf.      Time
     765    1.0113282e+02   0.000000e+00   0.000000e+00      0s

Solved in 765 iterations and 0.25 seconds (0.15 work units)
Optimal objective  1.011328162e+02
